[VALIDATOR STDOUT]
Checking plan: /home/jfan5/Safety-gen/runs/benchmark/optic/spanner_20260129_162401/spanner/optic_results/spanner-s7-n6-l10-s7001.plan
Plan executed successfully - checking goal
Plan valid
Final value: 23 

Successful plans:
Value: 23
 /home/jfan5/Safety-gen/runs/benchmark/optic/spanner_20260129_162401/spanner/optic_results/spanner-s7-n6-l10-s7001.plan 23
